p edge 75 833
e 1 3
e 1 4
e 1 8
e 1 15
e 1 18
e 1 22
e 1 26
e 1 27
e 1 28
e 1 33
e 1 38
e 1 39
e 1 44
e 1 46
e 1 48
e 1 50
e 1 52
e 1 53
e 1 58
e 1 59
e 1 62
e 1 63
e 1 66
e 1 67
e 2 10
e 2 12
e 2 18
e 2 21
e 2 23
e 2 26
e 2 27
e 2 31
e 2 32
e 2 38
e 2 45
e 2 48
e 2 58
e 2 59
e 2 61
e 2 65
e 2 67
e 2 68
e 2 70
e 2 73
e 2 74
e 2 75
e 3 7
e 3 10
e 3 21
e 3 22
e 3 23
e 3 24
e 3 28
e 3 30
e 3 31
e 3 32
e 3 33
e 3 36
e 3 37
e 3 38
e 3 47
e 3 48
e 3 49
e 3 51
e 3 52
e 3 53
e 3 54
e 3 56
e 3 57
e 3 58
e 3 59
e 3 60
e 3 64
e 3 68
e 3 69
e 3 70
e 4 6
e 4 7
e 4 9
e 4 16
e 4 17
e 4 21
e 4 25
e 4 31
e 4 32
e 4 33
e 4 34
e 4 35
e 4 42
e 4 48
e 4 49
e 4 51
e 4 53
e 4 54
e 4 57
e 4 58
e 4 59
e 4 60
e 4 65
e 4 66
e 4 68
e 4 72
e 4 75
e 5 6
e 5 8
e 5 12
e 5 13
e 5 18
e 5 19
e 5 23
e 5 24
e 5 25
e 5 31
e 5 33
e 5 34
e 5 37
e 5 38
e 5 41
e 5 43
e 5 69
e 5 72
e 5 73
e 5 75
e 6 9
e 6 13
e 6 16
e 6 18
e 6 22
e 6 24
e 6 25
e 6 29
e 6 32
e 6 37
e 6 38
e 6 41
e 6 43
e 6 46
e 6 48
e 6 49
e 6 54
e 6 55
e 6 59
e 6 62
e 6 67
e 6 68
e 6 69
e 6 70
e 7 9
e 7 11
e 7 13
e 7 14
e 7 16
e 7 22
e 7 23
e 7 28
e 7 42
e 7 43
e 7 44
e 7 45
e 7 46
e 7 47
e 7 51
e 7 58
e 7 59
e 7 61
e 7 62
e 7 64
e 7 65
e 7 66
e 7 67
e 7 69
e 8 16
e 8 25
e 8 27
e 8 28
e 8 34
e 8 35
e 8 43
e 8 44
e 8 52
e 8 55
e 8 61
e 8 63
e 8 65
e 8 66
e 8 69
e 9 13
e 9 23
e 9 26
e 9 28
e 9 38
e 9 42
e 9 43
e 9 45
e 9 55
e 9 59
e 9 60
e 9 67
e 9 68
e 9 73
e 10 12
e 10 14
e 10 22
e 10 25
e 10 28
e 10 32
e 10 34
e 10 37
e 10 38
e 10 44
e 10 49
e 10 50
e 10 54
e 10 56
e 10 58
e 10 60
e 10 62
e 10 63
e 10 71
e 10 74
e 11 14
e 11 17
e 11 18
e 11 21
e 11 22
e 11 30
e 11 32
e 11 33
e 11 36
e 11 38
e 11 39
e 11 41
e 11 44
e 11 46
e 11 48
e 11 49
e 11 57
e 11 59
e 11 64
e 11 66
e 11 69
e 11 70
e 11 73
e 12 16
e 12 17
e 12 20
e 12 25
e 12 28
e 12 29
e 12 31
e 12 32
e 12 33
e 12 37
e 12 38
e 12 53
e 12 67
e 12 74
e 13 14
e 13 21
e 13 24
e 13 27
e 13 29
e 13 34
e 13 39
e 13 45
e 13 46
e 13 54
e 13 56
e 13 57
e 13 60
e 13 62
e 13 63
e 13 67
e 13 75
e 14 20
e 14 22
e 14 24
e 14 30
e 14 31
e 14 33
e 14 37
e 14 38
e 14 39
e 14 43
e 14 45
e 14 53
e 14 55
e 14 60
e 14 61
e 14 63
e 14 65
e 14 66
e 14 69
e 14 74
e 15 17
e 15 28
e 15 35
e 15 38
e 15 41
e 15 47
e 15 49
e 15 52
e 15 64
e 15 68
e 15 69
e 16 20
e 16 27
e 16 28
e 16 33
e 16 34
e 16 36
e 16 39
e 16 40
e 16 43
e 16 49
e 16 54
e 16 58
e 16 61
e 16 68
e 16 70
e 16 72
e 17 18
e 17 28
e 17 36
e 17 39
e 17 41
e 17 42
e 17 43
e 17 49
e 17 50
e 17 53
e 17 54
e 17 55
e 17 57
e 17 62
e 17 63
e 17 69
e 17 70
e 17 71
e 17 74
e 18 19
e 18 20
e 18 23
e 18 32
e 18 33
e 18 39
e 18 42
e 18 53
e 18 54
e 18 56
e 18 60
e 18 64
e 18 65
e 18 66
e 18 68
e 18 71
e 18 74
e 18 75
e 19 22
e 19 23
e 19 28
e 19 29
e 19 30
e 19 31
e 19 32
e 19 37
e 19 41
e 19 44
e 19 45
e 19 49
e 19 50
e 19 52
e 19 58
e 19 65
e 19 69
e 19 74
e 20 23
e 20 25
e 20 26
e 20 28
e 20 29
e 20 32
e 20 35
e 20 36
e 20 39
e 20 45
e 20 46
e 20 48
e 20 51
e 20 52
e 20 54
e 20 55
e 20 59
e 20 60
e 20 63
e 20 65
e 20 66
e 20 70
e 20 71
e 20 72
e 20 73
e 20 75
e 21 32
e 21 33
e 21 35
e 21 37
e 21 41
e 21 43
e 21 44
e 21 45
e 21 46
e 21 50
e 21 54
e 21 57
e 21 61
e 21 62
e 21 72
e 22 23
e 22 26
e 22 36
e 22 45
e 22 50
e 22 59
e 22 61
e 22 62
e 22 64
e 22 69
e 22 75
e 23 27
e 23 28
e 23 29
e 23 33
e 23 39
e 23 40
e 23 42
e 23 45
e 23 46
e 23 49
e 23 55
e 23 58
e 23 63
e 23 71
e 23 73
e 23 75
e 24 25
e 24 26
e 24 29
e 24 32
e 24 33
e 24 44
e 24 47
e 24 50
e 24 53
e 24 58
e 24 59
e 24 67
e 24 68
e 24 73
e 25 27
e 25 30
e 25 32
e 25 33
e 25 34
e 25 37
e 25 48
e 25 60
e 25 63
e 25 69
e 25 70
e 25 73
e 26 29
e 26 31
e 26 32
e 26 36
e 26 40
e 26 43
e 26 48
e 26 51
e 26 53
e 26 54
e 26 64
e 26 68
e 26 74
e 27 32
e 27 33
e 27 34
e 27 37
e 27 41
e 27 42
e 27 44
e 27 45
e 27 46
e 27 48
e 27 61
e 27 65
e 27 68
e 27 70
e 27 75
e 28 33
e 28 38
e 28 39
e 28 40
e 28 63
e 28 69
e 28 71
e 28 73
e 29 31
e 29 34
e 29 37
e 29 39
e 29 41
e 29 45
e 29 48
e 29 59
e 29 61
e 29 62
e 29 67
e 29 75
e 30 33
e 30 44
e 30 46
e 30 47
e 30 49
e 30 55
e 30 57
e 30 60
e 30 62
e 30 66
e 30 70
e 30 72
e 30 73
e 31 33
e 31 34
e 31 35
e 31 37
e 31 39
e 31 41
e 31 42
e 31 45
e 31 49
e 31 53
e 31 54
e 31 61
e 31 63
e 31 66
e 31 68
e 31 69
e 32 36
e 32 37
e 32 41
e 32 43
e 32 52
e 32 55
e 32 57
e 32 65
e 32 69
e 33 37
e 33 39
e 33 42
e 33 50
e 33 51
e 33 58
e 33 61
e 33 62
e 33 64
e 33 65
e 33 69
e 33 72
e 34 37
e 34 39
e 34 40
e 34 41
e 34 45
e 34 47
e 34 49
e 34 52
e 34 63
e 34 67
e 34 73
e 34 75
e 35 41
e 35 42
e 35 45
e 35 46
e 35 54
e 35 59
e 35 61
e 35 63
e 35 65
e 35 68
e 35 70
e 35 74
e 36 38
e 36 39
e 36 46
e 36 47
e 36 48
e 36 51
e 36 55
e 36 59
e 36 62
e 36 63
e 36 65
e 36 66
e 36 68
e 36 70
e 36 71
e 37 38
e 37 41
e 37 43
e 37 44
e 37 51
e 37 52
e 37 54
e 37 55
e 37 58
e 37 59
e 37 65
e 37 66
e 37 73
e 37 74
e 38 42
e 38 43
e 38 44
e 38 45
e 38 57
e 38 64
e 38 69
e 38 73
e 38 74
e 38 75
e 39 44
e 39 51
e 39 52
e 39 54
e 39 55
e 39 58
e 39 61
e 39 66
e 39 69
e 39 72
e 40 42
e 40 46
e 40 49
e 40 51
e 40 53
e 40 54
e 40 55
e 40 56
e 40 59
e 40 62
e 40 63
e 40 65
e 40 70
e 40 71
e 40 73
e 40 75
e 41 46
e 41 49
e 41 57
e 41 58
e 41 62
e 41 63
e 41 69
e 41 71
e 42 43
e 42 46
e 42 48
e 42 51
e 42 54
e 42 57
e 42 58
e 42 59
e 42 61
e 42 64
e 42 66
e 42 68
e 42 73
e 42 75
e 43 45
e 43 51
e 43 54
e 43 55
e 43 62
e 43 63
e 43 64
e 43 66
e 43 68
e 43 69
e 43 71
e 43 72
e 44 52
e 44 53
e 44 56
e 44 57
e 44 60
e 44 62
e 44 63
e 44 64
e 44 65
e 44 67
e 44 68
e 44 69
e 44 72
e 44 73
e 45 51
e 45 52
e 45 57
e 45 70
e 45 71
e 45 74
e 46 47
e 46 55
e 46 58
e 46 60
e 46 64
e 46 66
e 46 67
e 46 75
e 47 49
e 47 50
e 47 52
e 47 54
e 47 55
e 47 68
e 47 72
e 47 73
e 47 74
e 48 53
e 48 69
e 48 70
e 48 71
e 48 73
e 49 52
e 49 54
e 49 57
e 49 63
e 49 65
e 49 68
e 49 72
e 49 73
e 49 74
e 50 55
e 50 60
e 50 63
e 50 68
e 50 69
e 50 70
e 50 73
e 51 52
e 51 53
e 51 68
e 51 69
e 52 54
e 52 55
e 52 57
e 52 59
e 52 61
e 52 64
e 52 65
e 52 68
e 52 71
e 52 72
e 53 54
e 53 55
e 53 65
e 53 68
e 53 70
e 54 56
e 54 63
e 54 66
e 54 67
e 54 68
e 54 74
e 54 75
e 55 62
e 55 71
e 55 73
e 55 75
e 56 57
e 56 59
e 56 64
e 56 66
e 56 67
e 56 68
e 56 69
e 56 72
e 57 60
e 57 63
e 57 68
e 57 71
e 57 72
e 57 74
e 58 59
e 58 60
e 58 72
e 59 61
e 59 62
e 59 65
e 59 70
e 59 72
e 59 75
e 60 62
e 60 65
e 60 70
e 60 72
e 61 62
e 61 75
e 62 67
e 62 69
e 62 72
e 63 66
e 63 70
e 63 73
e 64 67
e 64 68
e 64 71
e 64 72
e 64 74
e 65 74
e 66 72
e 66 74
e 67 68
e 67 71
e 67 72
e 68 69
e 68 72
e 68 75
e 69 71
e 70 71
e 71 74
e 71 75
e 72 73
